NAME : mr38
COMMENT : 38-city problem (DISC)
TYPE : TSP
DIMENSION : 38
EDGE_WEIGHT_TYPE : EUC_2D
NODE_COORD_SECTION
1 39 2
2 86 19
3 95 45
4 71 60
5 64 13
6 61 82
7 21 22
8 39 10
9 26 13
10 8 100
11 29 33
12 44 41
13 49 48
14 87 42
15 53 30
16 57 57
17 48 37
18 69 26
19 51 45
20 83 61
21 97 33
22 86 65
23 31 42
24 55 30
25 66 69
26 96 92
27 98 58
28 45 68
29 80 65
30 73 67
31 9 40
32 80 73
33 93 64
34 62 46
35 22 3
36 25 53
37 42 46
38 73 65
EOF
